
Gurobi 11.0.0 (linux64) logging started Sun Mar 24 23:10:54 2024

Set parameter LogFile to value "gurobi_out/log/Mar_24_if_loop_1_100_8.log"
Gurobi Optimizer version 11.0.0 build v11.0.0rc2 (linux64 - "CentOS Linux 7 (Core)")

CPU model: Intel Xeon E3-12xx v2 (Ivy Bridge), instruction set [SSE2|AVX]
Thread count: 24 physical cores, 24 logical processors, using up to 24 threads

Optimize a model with 509 rows, 413 columns and 1263 nonzeros
Model fingerprint: 0x8cd3f36b
Variable types: 293 continuous, 120 integer (60 binary)
Coefficient statistics:
  Matrix range     [1e+00, 1e+02]
  Objective range  [1e-05, 5e-01]
  Bounds range     [1e-03, 1e+00]
  RHS range        [1e-04, 8e+00]
Presolve removed 219 rows and 186 columns
Presolve time: 0.01s
Presolved: 290 rows, 227 columns, 846 nonzeros
Variable types: 128 continuous, 99 integer (50 binary)

Root relaxation: objective 9.999004e-01, 164 iterations, 0.00 seconds (0.00 work units)

    Nodes    |    Current Node    |     Objective Bounds      |     Work
 Expl Unexpl |  Obj  Depth IntInf | Incumbent    BestBd   Gap | It/Node Time

     0     0    0.99990    0   18          -    0.99990      -     -    0s
H    0     0                       0.4999000    0.99990   100%     -    0s
     0     0    0.99987    0   12    0.49990    0.99987   100%     -    0s
H    0     0                       0.7498300    0.99987  33.3%     -    0s
H    0     0                       0.9998600    0.99987  0.00%     -    0s
     0     0          -    0         0.99986    0.99987  0.00%     -    0s

Cutting planes:
  Learned: 1
  Gomory: 5
  Cover: 1
  Implied bound: 1
  MIR: 12
  RLT: 2

Explored 1 nodes (197 simplex iterations) in 0.06 seconds (0.01 work units)
Thread count was 24 (of 24 available processors)

Solution count 3: 0.99986 0.74983 0.4999 

Optimal solution found (tolerance 1.00e-05)
Best objective 9.998600000000e-01, best bound 9.998684067705e-01, gap 0.0008%
Warning: linear constraint 121 and linear constraint 122 have the same name "PathConstr3_nopl"

Gurobi 11.0.0 (linux64) logging started Sun Mar 24 23:11:37 2024

Set parameter LogFile to value "gurobi_out/log/Mar_24_if_loop_1_100_8.log"
Gurobi Optimizer version 11.0.0 build v11.0.0rc2 (linux64 - "CentOS Linux 7 (Core)")

CPU model: Intel Xeon E3-12xx v2 (Ivy Bridge), instruction set [SSE2|AVX]
Thread count: 24 physical cores, 24 logical processors, using up to 24 threads

Optimize a model with 509 rows, 413 columns and 1263 nonzeros
Model fingerprint: 0x8cd3f36b
Variable types: 293 continuous, 120 integer (60 binary)
Coefficient statistics:
  Matrix range     [1e+00, 1e+02]
  Objective range  [1e-05, 5e-01]
  Bounds range     [1e-03, 1e+00]
  RHS range        [1e-04, 8e+00]
Presolve removed 219 rows and 186 columns
Presolve time: 0.01s
Presolved: 290 rows, 227 columns, 846 nonzeros
Variable types: 128 continuous, 99 integer (50 binary)

Root relaxation: objective 9.999004e-01, 164 iterations, 0.00 seconds (0.00 work units)

    Nodes    |    Current Node    |     Objective Bounds      |     Work
 Expl Unexpl |  Obj  Depth IntInf | Incumbent    BestBd   Gap | It/Node Time

     0     0    0.99990    0   18          -    0.99990      -     -    0s
H    0     0                       0.4999000    0.99990   100%     -    0s
     0     0    0.99987    0   12    0.49990    0.99987   100%     -    0s
H    0     0                       0.7498300    0.99987  33.3%     -    0s
H    0     0                       0.9998600    0.99987  0.00%     -    0s
     0     0          -    0         0.99986    0.99987  0.00%     -    0s

Cutting planes:
  Learned: 1
  Gomory: 5
  Cover: 1
  Implied bound: 1
  MIR: 12
  RLT: 2

Explored 1 nodes (197 simplex iterations) in 0.05 seconds (0.01 work units)
Thread count was 24 (of 24 available processors)

Solution count 3: 0.99986 0.74983 0.4999 

Optimal solution found (tolerance 1.00e-05)
Best objective 9.998600000000e-01, best bound 9.998684067705e-01, gap 0.0008%
Warning: linear constraint 121 and linear constraint 122 have the same name "PathConstr3_nopl"

Gurobi 11.0.0 (linux64) logging started Sun Mar 24 23:12:21 2024

Set parameter LogFile to value "gurobi_out/log/Mar_24_if_loop_1_100_8.log"
Gurobi Optimizer version 11.0.0 build v11.0.0rc2 (linux64 - "CentOS Linux 7 (Core)")

CPU model: Intel Xeon E3-12xx v2 (Ivy Bridge), instruction set [SSE2|AVX]
Thread count: 24 physical cores, 24 logical processors, using up to 24 threads

Optimize a model with 509 rows, 413 columns and 1263 nonzeros
Model fingerprint: 0x8cd3f36b
Variable types: 293 continuous, 120 integer (60 binary)
Coefficient statistics:
  Matrix range     [1e+00, 1e+02]
  Objective range  [1e-05, 5e-01]
  Bounds range     [1e-03, 1e+00]
  RHS range        [1e-04, 8e+00]
Presolve removed 219 rows and 186 columns
Presolve time: 0.01s
Presolved: 290 rows, 227 columns, 846 nonzeros
Variable types: 128 continuous, 99 integer (50 binary)

Root relaxation: objective 9.999004e-01, 164 iterations, 0.00 seconds (0.00 work units)

    Nodes    |    Current Node    |     Objective Bounds      |     Work
 Expl Unexpl |  Obj  Depth IntInf | Incumbent    BestBd   Gap | It/Node Time

     0     0    0.99990    0   18          -    0.99990      -     -    0s
H    0     0                       0.4999000    0.99990   100%     -    0s
     0     0    0.99987    0   12    0.49990    0.99987   100%     -    0s
H    0     0                       0.7498300    0.99987  33.3%     -    0s
H    0     0                       0.9998600    0.99987  0.00%     -    0s
     0     0          -    0         0.99986    0.99987  0.00%     -    0s

Cutting planes:
  Learned: 1
  Gomory: 5
  Cover: 1
  Implied bound: 1
  MIR: 12
  RLT: 2

Explored 1 nodes (197 simplex iterations) in 0.07 seconds (0.01 work units)
Thread count was 24 (of 24 available processors)

Solution count 3: 0.99986 0.74983 0.4999 

Optimal solution found (tolerance 1.00e-05)
Best objective 9.998600000000e-01, best bound 9.998684067705e-01, gap 0.0008%
Warning: linear constraint 121 and linear constraint 122 have the same name "PathConstr3_nopl"
